
;this file is automatically generated: Sun Oct 25 10:43:47 CST 2020

;declarations generated

(declare-fun oclExcludes ( Int Int) Bool)
(declare-fun Cardinality ( Int) Int)
(declare-fun class0_Class0IntAttr3 ( Int) Int)
(declare-fun class0_Class0IntAttr4 ( Int) Int)
(declare-fun oclSelect ( Int Bool) Int)
(declare-fun type_bd44765b_6830_4764_803c_1c5a153da0d7_Class0 ( Int) Bool)
(declare-fun obj_bdc026ec_0680_4416_b8f2_400d9e3449f9 ( Int) Int)
(declare-fun Enum0 ( Int) Int)
(declare-fun Enum1 ( Int) Int)
(declare-fun container_ ( Int) Int)
(declare-fun oclIncludes ( Int Int) Bool)
(declare-fun type_bd44765b_6830_4764_803c_1c5a153da0d7_Class19 ( Int) Bool)
(declare-fun ObjAt ( Int Int) Int)

;formula(s) generated
(assert (! (forall ((c0_1 Int)(c0_2 Int)) (=> (and (and ( type_bd44765b_6830_4764_803c_1c5a153da0d7_Class0 c0_1 )  ( type_bd44765b_6830_4764_803c_1c5a153da0d7_Class19 c0_1 ) ) (and ( type_bd44765b_6830_4764_803c_1c5a153da0d7_Class0 c0_2 )  ( type_bd44765b_6830_4764_803c_1c5a153da0d7_Class19 c0_2 ) )) (>= ( class0_Class0IntAttr3 ( obj_bdc026ec_0680_4416_b8f2_400d9e3449f9 c0_1 )  )  ( class0_Class0IntAttr4 ( obj_bdc026ec_0680_4416_b8f2_400d9e3449f9 c0_2 )  ) ))):named l0))
(assert (! (forall ((v Int)) (=> (and ( type_bd44765b_6830_4764_803c_1c5a153da0d7_Class0 v )  ( type_bd44765b_6830_4764_803c_1c5a153da0d7_Class19 v ) ) (= ( class0_Class0IntAttr4 ( obj_bdc026ec_0680_4416_b8f2_400d9e3449f9 v )  )  13))):named l1))
(assert (exists ((o Int)) (and ( type_bd44765b_6830_4764_803c_1c5a153da0d7_Class0 ( obj_bdc026ec_0680_4416_b8f2_400d9e3449f9 o )  )  ( type_bd44765b_6830_4764_803c_1c5a153da0d7_Class19 ( obj_bdc026ec_0680_4416_b8f2_400d9e3449f9 o )  ) )))

 ;end of formula 